trunk/examples/smtlib/groundtest1_inst.smt2
(set-option :produce-proofs true)
(set-info :source "{
}")
(set-info :status unsat)
(set-info :difficulty "{ 0 }")
(set-logic AUFLIA)
(declare-fun P ( Int) Bool)
(declare-fun Q ( Int Int) Bool)
(declare-fun foo1 () Int)
(declare-fun foo2 () Int)
(declare-fun bar () Int)
(declare-fun sky () Int)
(declare-fun x1 () Int)
(declare-fun x2 () Int)
(declare-fun y1 () Int)
(declare-fun y2 () Int)
(assert (! (and (= y2 sky) (=> (P x2) (Q x2 y1)) (=> (P x1) (Q x1 y1)) (=> (Q x2 sky) (P x2)) (=> (Q x1 sky) (P x1))) :named IP_0))
(assert (! (Q foo2 y2) :named IP_1))
(assert (! (and (= x1 foo1) (= x2 foo2) (= y1 bar) (or (not (P foo2)) (and (P foo1) (not (Q foo1 bar))))) :named IP_2))
(check-sat)
(get-interpolants IP_0 IP_1 IP_2)
(exit)
